
Gurobi 11.0.3 (linux64) logging started Mon Nov 25 00:06:58 2024

Set parameter LogFile to value "/home/yihong/Coding/OR_SUC/SUC_results_bigM100000_thread4/case24_ieee_rts_theta0.5_epsilon0.025_gurobi_seed1330000_num_gen100_N_WDR100_load_scaling_factor1_exact_T16quadra_cost.txt"
Set parameter TimeLimit to value 3600
Gurobi Optimizer version 11.0.3 build v11.0.3rc0 (linux64 - "Ubuntu 20.04.6 LTS")

CPU model: AMD EPYC 7532 32-Core Processor, instruction set [SSE2|AVX|AVX2]
Thread count: 64 physical cores, 128 logical processors, using up to 4 threads

Optimize a model with 34563 rows, 20041 columns and 474826 nonzeros
Model fingerprint: 0x4e87e216
Model has 1600 quadratic constraints
Variable types: 18341 continuous, 1700 integer (1700 binary)
Coefficient statistics:
  Matrix range     [3e-04, 1e+05]
  QMatrix range    [2e-03, 8e-03]
  QLMatrix range   [2e-01, 6e+01]
  Objective range  [1e+00, 1e+00]
  Bounds range     [1e+00, 1e+00]
  RHS range        [1e+00, 1e+05]
Presolve removed 28052 rows and 8772 columns
Presolve time: 0.17s
Presolved: 6511 rows, 11269 columns, 42655 nonzeros
Presolved model has 1600 quadratic constraint(s)
Variable types: 9627 continuous, 1642 integer (1642 binary)

Root relaxation: objective 4.741022e+04, 5197 iterations, 0.10 seconds (0.14 work units)

    Nodes    |    Current Node    |     Objective Bounds      |     Work
 Expl Unexpl |  Obj  Depth IntInf | Incumbent    BestBd   Gap | It/Node Time

     0     0 47410.2242    0   20          - 47410.2242      -     -    0s
H    0     0                    545404.09048 320430.814  41.2%     -    0s
     0     0 320430.814    0  372 545404.090 320430.814  41.2%     -    0s
     0     0 320434.857    0  372 545404.090 320434.857  41.2%     -    0s
     0     0 469294.048    0   55 545404.090 469294.048  14.0%     -    0s
     0     0 469334.286    0   20 545404.090 469334.286  13.9%     -    0s
     0     0 469689.530    0   23 545404.090 469689.530  13.9%     -    0s
     0     0 469710.630    0   22 545404.090 469710.630  13.9%     -    1s
     0     0 469907.326    0   19 545404.090 469907.326  13.8%     -    1s
     0     0 469915.944    0   16 545404.090 469915.944  13.8%     -    1s
     0     0 469923.646    0   16 545404.090 469923.646  13.8%     -    1s
     0     0 469928.483    0   16 545404.090 469928.483  13.8%     -    1s
     0     2 469928.483    0   16 545404.090 469928.483  13.8%     -    3s
    94   104 470069.321   21   16 545404.090 469958.929  13.8%  35.0    5s
H  109   120                    470072.62040 469958.929  0.02%  32.4    5s
*  109   120              29    470072.62040 469958.929  0.02%  32.5    5s

Cutting planes:
  Gomory: 16
  Implied bound: 240
  MIR: 19
  Flow cover: 32
  Inf proof: 2
  Relax-and-lift: 1

Explored 125 nodes (18677 simplex iterations) in 5.86 seconds (6.38 work units)
Thread count was 4 (of 128 available processors)

Solution count 3: 470073 470073 545404 

Optimal solution found (tolerance 1.00e-03)
Warning: max constraint violation (3.6835e-07) exceeds tolerance
Best objective 4.700726204048e+05, best bound 4.699589285541e+05, gap 0.0242%
